NAME SOCP
ROWS
 N  OBJ
 E  R0      
 E  R1      
 E  R2      
 E  R3      
 E  R4      
 E  R5      
 E  R6      
 E  R7      
 E  R8      
 E  R9      
 E  R10     
 E  R11     
 E  R12     
 E  R13     
 E  R14     
 E  R15     
 E  R16     
 E  R17     
 E  R18     
 E  R19     
 E  R20     
 E  R21     
 E  R22     
 E  R23     
 E  R24     
 E  R25     
 E  R26     
 E  R27     
 E  R28     
 E  R29     
 L  qc0     
 L  qc1     
 L  qc2     
 L  qc3     
 L  qc4     
 L  qc5     
 L  qc6     
 L  qc7     
 L  qc8     
 L  qc9     
 L  qc10    
 L  qc11    
 L  qc12    
 L  qc13    
 L  qc14    
COLUMNS
    x_1       R0        -1
    x_1       R2        1
    x_1       R16       -1
    y_1       R1        -1
    y_1       R3        1
    y_1       R17       -1
    x_2       R2        -1
    x_2       R4        1
    x_2       R18       -1
    y_2       R3        -1
    y_2       R5        1
    y_2       R19       -1
    x_3       R4        -1
    x_3       R6        1
    x_3       R20       -1
    y_3       R5        -1
    y_3       R7        1
    y_3       R21       -1
    x_4       R6        -1
    x_4       R8        1
    x_4       R22       -1
    y_4       R7        -1
    y_4       R9        1
    y_4       R23       -1
    x_5       R8        -1
    x_5       R10       1
    x_5       R24       -1
    y_5       R9        -1
    y_5       R11       1
    y_5       R25       -1
    x_6       R10       -1
    x_6       R12       1
    x_6       R26       -1
    y_6       R11       -1
    y_6       R13       1
    y_6       R27       -1
    x_7       R12       -1
    x_7       R14       1
    x_7       R28       -1
    y_7       R13       -1
    y_7       R15       1
    y_7       R29       -1
    d_0       OBJ       1
    d_1       OBJ       1
    d_2       OBJ       1
    d_3       OBJ       1
    d_4       OBJ       1
    d_5       OBJ       1
    d_6       OBJ       1
    d_7       OBJ       1
    dx_0      R0        1
    dy_0      R1        1
    dx_1      R2        1
    dy_1      R3        1
    dx_2      R4        1
    dy_2      R5        1
    dx_3      R6        1
    dy_3      R7        1
    dx_4      R8        1
    dy_4      R9        1
    dx_5      R10       1
    dy_5      R11       1
    dx_6      R12       1
    dy_6      R13       1
    dx_7      R14       1
    dy_7      R15       1
    rx_1      R16       1
    ry_1      R17       1
    rx_2      R18       1
    ry_2      R19       1
    rx_3      R20       1
    ry_3      R21       1
    rx_4      R22       1
    ry_4      R23       1
    rx_5      R24       1
    ry_5      R25       1
    rx_6      R26       1
    ry_6      R27       1
    rx_7      R28       1
    ry_7      R29       1
RHS
    RHS1      R0        -50
    RHS1      R1        -50
    RHS1      R14       50
    RHS1      R15       50
    RHS1      R16       -2.7935270924026923e+00
    RHS1      R17       -8.1913540490470979e+01
    RHS1      R18       -3.9953462297940270e+01
    RHS1      R19       -7.9933443466653870e+01
    RHS1      R20       -7.4063940179731613e-01
    RHS1      R21       -3.3788849564946645e+01
    RHS1      R22       -4.2914137448938163e+01
    RHS1      R23       -1.2353984956089226e+01
    RHS1      R24       -94.5634959346547
    RHS1      R25       -2.2884668127303620e+01
    RHS1      R26       -9.8487828540895578e+01
    RHS1      R27       -6.6044310381639775e+01
    RHS1      R28       -5.9211496839618761e+01
    RHS1      R29       -8.2572758285191142e+01
    RHS1      qc8       100
    RHS1      qc9       100
    RHS1      qc10      100
    RHS1      qc11      100
    RHS1      qc12      100
    RHS1      qc13      100
    RHS1      qc14      100
BOUNDS
 LO BND1      x_1       -1.0259360598202683e+01
 UP BND1      x_1       1.0948782854089558e+02
 LO BND1      y_1       1.3539849560892261e+00
 UP BND1      y_1       9.3572758285191142e+01
 LO BND1      x_2       -1.0259360598202683e+01
 UP BND1      x_2       1.0948782854089558e+02
 LO BND1      y_2       1.3539849560892261e+00
 UP BND1      y_2       9.3572758285191142e+01
 LO BND1      x_3       -1.0259360598202683e+01
 UP BND1      x_3       1.0948782854089558e+02
 LO BND1      y_3       1.3539849560892261e+00
 UP BND1      y_3       9.3572758285191142e+01
 LO BND1      x_4       -1.0259360598202683e+01
 UP BND1      x_4       1.0948782854089558e+02
 LO BND1      y_4       1.3539849560892261e+00
 UP BND1      y_4       9.3572758285191142e+01
 LO BND1      x_5       -1.0259360598202683e+01
 UP BND1      x_5       1.0948782854089558e+02
 LO BND1      y_5       1.3539849560892261e+00
 UP BND1      y_5       9.3572758285191142e+01
 LO BND1      x_6       -1.0259360598202683e+01
 UP BND1      x_6       1.0948782854089558e+02
 LO BND1      y_6       1.3539849560892261e+00
 UP BND1      y_6       9.3572758285191142e+01
 LO BND1      x_7       -1.0259360598202683e+01
 UP BND1      x_7       1.0948782854089558e+02
 LO BND1      y_7       1.3539849560892261e+00
 UP BND1      y_7       9.3572758285191142e+01
 FR BND1      dx_0    
 FR BND1      dy_0    
 FR BND1      dx_1    
 FR BND1      dy_1    
 FR BND1      dx_2    
 FR BND1      dy_2    
 FR BND1      dx_3    
 FR BND1      dy_3    
 FR BND1      dx_4    
 FR BND1      dy_4    
 FR BND1      dx_5    
 FR BND1      dy_5    
 FR BND1      dx_6    
 FR BND1      dy_6    
 FR BND1      dx_7    
 FR BND1      dy_7    
 FR BND1      rx_1    
 FR BND1      ry_1    
 FR BND1      rx_2    
 FR BND1      ry_2    
 FR BND1      rx_3    
 FR BND1      ry_3    
 FR BND1      rx_4    
 FR BND1      ry_4    
 FR BND1      rx_5    
 FR BND1      ry_5    
 FR BND1      rx_6    
 FR BND1      ry_6    
 FR BND1      rx_7    
 FR BND1      ry_7    
QCMATRIX   qc0     
    d_0       d_0       -1
    dx_0      dx_0      1
    dy_0      dy_0      1
QCMATRIX   qc1     
    d_1       d_1       -1
    dx_1      dx_1      1
    dy_1      dy_1      1
QCMATRIX   qc2     
    d_2       d_2       -1
    dx_2      dx_2      1
    dy_2      dy_2      1
QCMATRIX   qc3     
    d_3       d_3       -1
    dx_3      dx_3      1
    dy_3      dy_3      1
QCMATRIX   qc4     
    d_4       d_4       -1
    dx_4      dx_4      1
    dy_4      dy_4      1
QCMATRIX   qc5     
    d_5       d_5       -1
    dx_5      dx_5      1
    dy_5      dy_5      1
QCMATRIX   qc6     
    d_6       d_6       -1
    dx_6      dx_6      1
    dy_6      dy_6      1
QCMATRIX   qc7     
    d_7       d_7       -1
    dx_7      dx_7      1
    dy_7      dy_7      1
QCMATRIX   qc8     
    rx_1      rx_1      1
    ry_1      ry_1      1
QCMATRIX   qc9     
    rx_2      rx_2      1
    ry_2      ry_2      1
QCMATRIX   qc10    
    rx_3      rx_3      1
    ry_3      ry_3      1
QCMATRIX   qc11    
    rx_4      rx_4      1
    ry_4      ry_4      1
QCMATRIX   qc12    
    rx_5      rx_5      1
    ry_5      ry_5      1
QCMATRIX   qc13    
    rx_6      rx_6      1
    ry_6      ry_6      1
QCMATRIX   qc14    
    rx_7      rx_7      1
    ry_7      ry_7      1
ENDATA
